p ocr 174 172 380
3 197
13 197
18 197
26 197
29 197
32 197
36 197
45 197
52 197
58 197
62 197
73 197
75 197
79 197
80 197
83 197
87 197
88 197
89 176
89 178
89 184
89 186
89 187
89 189
89 191
89 192
89 197
89 203
89 210
89 211
89 213
89 214
89 215
89 216
89 221
89 223
89 227
89 228
89 231
89 238
89 240
89 252
89 253
89 255
89 257
89 264
89 265
89 271
89 272
89 274
89 280
89 281
89 284
89 285
89 288
89 289
89 290
89 292
89 296
89 299
89 300
89 301
89 303
89 305
89 315
89 323
89 324
89 325
89 326
89 332
89 336
89 341
89 344
89 346
92 197
93 197
94 197
96 197
98 197
104 175
104 179
104 186
104 187
104 188
104 194
104 196
104 197
104 202
104 216
104 217
104 221
104 228
104 241
104 250
104 253
104 258
104 259
104 266
104 267
104 273
104 275
104 277
104 280
104 282
104 285
104 286
104 291
104 292
104 295
104 297
104 303
104 304
104 305
104 307
104 310
104 311
104 319
104 321
104 329
104 334
104 341
104 343
104 344
105 197
107 197
108 177
108 178
108 180
108 188
108 189
108 190
108 191
108 193
108 197
108 203
108 204
108 213
108 215
108 218
108 222
108 224
108 225
108 230
108 232
108 241
108 242
108 249
108 259
108 260
108 266
108 270
108 273
108 274
108 276
108 280
108 284
108 290
108 294
108 299
108 300
108 309
108 310
108 312
108 313
108 314
108 316
108 319
108 321
108 322
108 330
108 333
108 341
108 345
108 346
109 197
112 197
113 178
113 183
113 184
113 189
113 190
113 198
113 204
113 206
113 208
113 216
113 217
113 219
113 225
113 235
113 237
113 239
113 241
113 243
113 244
113 248
113 253
113 254
113 258
113 262
113 263
113 265
113 266
113 268
113 269
113 272
113 274
113 275
113 279
113 281
113 283
113 284
113 285
113 289
113 293
113 301
113 307
113 309
113 314
113 317
113 318
113 325
113 329
113 334
113 340
113 341
113 344
120 197
124 197
125 197
128 197
132 197
138 197
139 176
139 177
139 180
139 186
139 191
139 193
139 195
139 197
139 199
139 200
139 201
139 208
139 210
139 216
139 224
139 225
139 226
139 229
139 230
139 233
139 241
139 255
139 263
139 266
139 273
139 276
139 279
139 281
139 286
139 295
139 298
139 300
139 306
139 309
139 311
139 319
139 323
139 326
139 327
139 329
139 337
139 338
139 339
139 341
139 346
141 197
144 197
145 197
146 197
147 197
149 197
152 197
154 197
155 197
156 175
156 180
156 185
156 192
156 198
156 200
156 204
156 206
156 207
156 208
156 216
156 224
156 225
156 226
156 227
156 228
156 229
156 232
156 234
156 235
156 240
156 244
156 245
156 257
156 268
156 272
156 279
156 282
156 284
156 285
156 291
156 296
156 297
156 299
156 305
156 306
156 311
156 316
156 317
156 331
156 332
156 336
156 341
156 342
161 197
167 179
167 187
167 190
167 194
167 197
167 198
167 200
167 211
167 212
167 215
167 222
167 224
167 230
167 232
167 236
167 240
167 246
167 250
167 251
167 256
167 261
167 278
167 279
167 280
167 284
167 287
167 288
167 290
167 293
167 294
167 298
167 303
167 305
167 306
167 314
167 316
167 318
167 323
167 325
167 330
167 332
167 335
167 339
167 341
167 342
167 343
168 197
171 197